NAME : portcgen-16-4
COMMENT : portcgen N=16, seed=4
TYPE : TSP
DIMENSION : 16
EDGE_WEIGHT_TYPE : EUC_2D
NODE_COORD_SECTION
1 61679 -376925
2 -117253 19294
3 204798 -567664
4 88910 -213842
5 -201451 -124048
6 -128187 -248064
7 6490 32147
8 191042 -243868
9 175274 -319519
10 114721 222737
11 387097 414557
12 6523 17469
13 -379409 -239165
14 -225264 -63998
15 203585 -114672
16 -216531 -142607
